NAME: ACTUAL_TOURS/amz1818
TYPE: TOUR
COMMENT: RouteID_c2569fe8-c3b6-4e96-8422-3d1363a0e532
DIMENSION: 115
TOUR_SECTION
44
34
85
39
106
81
114
54
41
40
91
115
6
36
96
8
109
2
42
83
76
45
25
84
93
98
9
21
88
107
110
16
19
28
73
66
26
78
100
69
108
63
5
75
27
58
104
15
3
48
38
61
11
52
35
105
30
112
59
102
31
13
14
43
57
12
50
87
33
101
1
97
90
53
92
29
60
95
37
22
62
86
18
72
17
49
7
67
32
99
64
65
4
71
47
103
82
80
55
111
79
70
94
89
77
68
23
20
74
56
51
10
46
113
24
-1
EOF
